% seed = 0

mint = 20;
% maxt = 75;

nActs = 27;
dur = [0,2,5,4,5,2,3,1,3,2,2,2,2,5,3,2,4,3,5,5,1,3,2,3,3,3,0];

nSkills = 3;
sreq = [| 0,0,0,
	| 1,1,0,
	| 1,1,1,
	| 0,1,0,
	| 1,0,0,
	| 1,0,0,
	| 1,1,0,
	| 0,1,0,
	| 0,1,0,
	| 0,1,0,
	| 0,1,0,
	| 0,0,1,
	| 0,0,1,
	| 1,0,0,
	| 0,0,1,
	| 0,0,1,
	| 0,0,1,
	| 0,0,1,
	| 1,0,0,
	| 0,0,1,
	| 0,1,0,
	| 0,1,1,
	| 0,0,1,
	| 1,0,0,
	| 0,1,0,
	| 1,0,0,
	| 0,0,0, |];

% SumOfsreq = 30;

nResources = 3;
mastery = [| true,false,false,
	| false,true,false,
	| false,false,true, |];

nPrecs = 93;
pred = [1,1,1,1,1,1,1,1,1,1,1,1,1,1,1,1,1,1,1,1,1,1,1,1,1,2,2,2,2,3,3,4,4,4,4,4,5,5,5,5,6,6,6,6,6,6,7,7,7,7,7,8,8,8,8,9,9,9,10,10,10,11,11,11,12,12,12,13,13,13,14,14,14,14,15,16,16,17,17,18,18,19,20,20,20,21,22,22,23,24,24,25,26];
succ = [2,3,4,5,6,7,8,9,10,11,12,13,14,15,16,17,18,19,20,21,22,23,24,25,26,9,27,21,24,27,15,19,20,27,15,16,26,27,22,23,8,9,10,16,22,27,18,27,24,14,22,19,20,21,27,27,13,14,27,23,24,17,27,15,19,20,27,27,14,16,18,27,26,16,27,27,22,27,21,27,23,27,25,27,24,27,26,27,27,25,27,27,27];

nUnrels = 213;
unpred = [2,2,2,2,2,2,2,2,2,2,2,2,2,3,3,3,3,3,3,3,3,3,3,3,3,3,3,3,3,3,3,3,3,3,3,4,4,4,4,4,4,4,4,4,4,4,4,4,4,5,5,5,5,5,5,5,5,5,5,5,5,5,5,5,5,5,5,6,6,6,6,6,7,7,7,7,7,7,7,7,7,7,7,8,8,8,8,8,8,8,8,8,8,8,8,8,9,9,9,9,9,9,9,9,9,9,10,10,10,10,10,10,10,10,10,10,10,10,10,11,11,11,11,11,11,11,11,11,11,11,11,12,12,12,12,12,12,12,12,12,12,13,13,13,13,13,13,13,14,14,14,14,14,14,14,15,15,15,15,15,15,15,15,15,15,15,16,16,16,16,16,16,16,16,17,17,17,17,17,17,17,17,18,18,18,18,18,18,18,19,19,19,19,19,19,19,20,20,20,20,21,21,21,21,21,22,22,22,23,23,23,24,25];
unsucc = [3,4,5,6,7,8,10,11,12,15,17,19,20,4,5,6,7,8,9,10,11,12,13,14,16,17,18,19,20,21,22,23,24,25,26,5,6,7,8,9,10,11,12,13,14,17,18,21,23,6,7,8,9,10,11,12,13,14,15,16,17,18,19,20,21,24,25,7,11,12,15,17,8,9,10,11,12,13,15,17,19,20,21,9,10,11,12,13,14,15,16,17,18,22,23,26,10,11,12,15,17,19,20,21,24,25,11,12,13,14,15,16,17,18,19,20,21,22,26,12,13,14,16,18,19,20,22,23,24,25,26,13,14,15,16,17,18,21,22,23,26,15,17,19,20,21,24,25,15,17,19,20,21,24,25,16,17,18,19,20,21,22,23,24,25,26,17,18,19,20,21,23,24,25,18,19,20,22,23,24,25,26,19,20,21,22,24,25,26,20,21,22,23,24,25,26,21,22,23,26,22,23,24,25,26,23,24,25,24,25,26,26,26];

USEFUL_RES = [{},
	{1,2},
	{1,2,3},
	{2},
	{1},
	{1},
	{1,2},
	{2},
	{2},
	{2},
	{2},
	{3},
	{3},
	{1},
	{3},
	{3},
	{3},
	{3},
	{1},
	{3},
	{2},
	{2,3},
	{3},
	{1},
	{2},
	{1},
	{}];

POTENTIAL_ACT = [{2,3,5,6,7,14,19,24,26},
	{2,3,4,7,8,9,10,11,21,22,25},
	{3,12,13,15,16,17,18,20,22,23}];
